Gurobi Optimizer version 9.1.2 build v9.1.2rc0 (linux64)
Thread count: 36 physical cores, 72 logical processors, using up to 32 threads
Optimize a model with 12 rows, 57 columns and 590 nonzeros
Model fingerprint: 0xf32eec78
Model has 47 quadratic constraints
Coefficient statistics:
  Matrix range     [2e-05, 3e+00]
  QMatrix range    [1e+00, 1e+00]
  QLMatrix range   [1e+00, 1e+00]
  Objective range  [8e-03, 7e-01]
  Bounds range     [1e+00, 1e+00]
  RHS range        [1e+00, 1e+00]
Presolve removed 9 rows and 0 columns

Continuous model is non-convex -- solving as a MIP.

Presolve removed 9 rows and 0 columns
Presolve time: 0.00s
Presolved: 189 rows, 57 columns, 443 nonzeros
Presolved model has 47 bilinear constraint(s)
Variable types: 57 continuous, 0 integer (0 binary)

Root relaxation: objective -1.743721e+00, 44 iterations, 0.00 seconds

    Nodes    |    Current Node    |     Objective Bounds      |     Work
 Expl Unexpl |  Obj  Depth IntInf | Incumbent    BestBd   Gap | It/Node Time

     0     0   -1.74372    0   38          -   -1.74372      -     -    0s
H    0     0                       0.6147548   -1.74372   384%     -    0s
     0     0   -1.64739    0    1    0.61475   -1.64739   368%     -    0s
H    0     0                      -1.6450460   -1.64739  0.14%     -    0s
     0     0     cutoff    0        -1.64505   -1.64505  0.00%     -    0s

Cutting planes:
  RLT: 25
  BQP: 3

Explored 1 nodes (76 simplex iterations) in 0.01 seconds
Thread count was 32 (of 72 available processors)

Solution count 2: -1.64505 0.614755 
No other solutions better than -1.64505

Optimal solution found (tolerance 1.00e-04)
Best objective -1.645045978473e+00, best bound -1.645045978473e+00, gap 0.0000%

User-callback calls 78, time in user-callback 0.00 sec
Gurobi Optimizer version 9.1.2 build v9.1.2rc0 (linux64)
Thread count: 36 physical cores, 72 logical processors, using up to 32 threads
Optimize a model with 24 rows, 120 columns and 2480 nonzeros
Model fingerprint: 0x93a581b9
Model has 100 quadratic constraints
Coefficient statistics:
  Matrix range     [8e-06, 4e+00]
  QMatrix range    [1e+00, 1e+00]
  QLMatrix range   [1e+00, 1e+00]
  Objective range  [6e-03, 1e+00]
  Bounds range     [1e+00, 1e+00]
  RHS range        [1e+00, 1e+00]
Presolve removed 18 rows and 0 columns

Continuous model is non-convex -- solving as a MIP.

Presolve removed 18 rows and 0 columns
Presolve time: 0.00s
Presolved: 406 rows, 120 columns, 1113 nonzeros
Presolved model has 100 bilinear constraint(s)
Variable types: 120 continuous, 0 integer (0 binary)

Root relaxation: objective -8.715767e+00, 160 iterations, 0.00 seconds

    Nodes    |    Current Node    |     Objective Bounds      |     Work
 Expl Unexpl |  Obj  Depth IntInf | Incumbent    BestBd   Gap | It/Node Time

     0     0   -8.71577    0  100          -   -8.71577      -     -    0s
H    0     0                       1.4776349   -8.71577   690%     -    0s
     0     0   -6.29722    0   90    1.47763   -6.29722   526%     -    0s
H    0     0                      -0.5783677   -6.29722   989%     -    0s
     0     0   -6.27789    0  100   -0.57837   -6.27789   985%     -    0s
     0     0   -5.65509    0  100   -0.57837   -5.65509   878%     -    0s
     0     0   -5.53730    0  100   -0.57837   -5.53730   857%     -    0s
     0     0   -5.35089    0   81   -0.57837   -5.35089   825%     -    0s
H    0     0                      -1.3609818   -5.35089   293%     -    0s
     0     0   -5.33710    0   91   -1.36098   -5.33710   292%     -    0s
     0     0   -5.26992    0   91   -1.36098   -5.26992   287%     -    0s
     0     0   -5.26568    0  100   -1.36098   -5.26568   287%     -    0s
     0     0   -5.25293    0   91   -1.36098   -5.25293   286%     -    0s
     0     0   -5.24661    0  100   -1.36098   -5.24661   286%     -    0s
     0     0   -5.23948    0  100   -1.36098   -5.23948   285%     -    0s
     0     0   -5.23104    0  100   -1.36098   -5.23104   284%     -    0s
     0     0   -5.22728    0  100   -1.36098   -5.22728   284%     -    0s
H    0     0                      -2.6257307   -5.22728  99.1%     -    0s
H    0     0                      -3.3130748   -5.22728  57.8%     -    0s
H    0     0                      -3.4036106   -5.22728  53.6%     -    0s
H    0     0                      -3.4982223   -5.22728  49.4%     -    0s
H    0     0                      -3.8465523   -5.22728  35.9%     -    0s
H    0     0                      -3.9387139   -5.22728  32.7%     -    0s
     0     2   -5.22728    0  100   -3.93871   -5.22728  32.7%     -    0s
*  963   438              27      -3.9492898   -4.68455  18.6%  39.1    0s
*  964   438              27      -3.9492917   -4.68455  18.6%  39.0    0s
*  997   438              23      -3.9607313   -4.68455  18.3%  38.5    0s
*  998   438              23      -3.9607342   -4.68455  18.3%  38.5    0s
* 1146   540              37      -3.9612850   -4.68455  18.3%  37.1    0s
* 1212   540              25      -3.9655421   -4.68455  18.1%  36.1    0s
* 1213   540              25      -3.9655666   -4.68455  18.1%  36.1    0s
* 1382   662              28      -4.1102243   -4.68455  14.0%  34.0    0s
* 1649   758              28      -4.1102304   -4.63310  12.7%  31.9    0s
* 1785   758              39      -4.1117730   -4.63310  12.7%  31.2    0s
* 1892   959              34      -4.2820663   -4.63310  8.20%  30.8    0s
* 2262  1010              34      -4.2821117   -4.33445  1.22%  29.0    0s
* 2325  1010              32      -4.2905218   -4.31042  0.46%  28.5    0s
* 2360  1010              39      -4.2911584   -4.31042  0.45%  28.2    0s
* 2362  1010              40      -4.2911703   -4.31042  0.45%  28.2    0s
* 2564  1010              28      -4.2916889   -4.31042  0.44%  26.7    0s
* 2651  1047              35      -4.2944220   -4.30101  0.15%  26.1    0s
* 2684  1047              30      -4.2945061   -4.30055  0.14%  25.9    0s
* 3054  1047              26      -4.2945536   -4.29662  0.05%  23.7    0s

Cutting planes:
  RLT: 77
  BQP: 11
  PSD: 11

Explored 3835 nodes (74351 simplex iterations) in 0.79 seconds
Thread count was 32 (of 72 available processors)

Solution count 10: -4.29455 -4.29451 -4.29442 ... -4.11177

Optimal solution found (tolerance 1.00e-04)
Best objective -4.294553574508e+00, best bound -4.294598390898e+00, gap 0.0010%

User-callback calls 7980, time in user-callback 0.00 sec



objective value: -4.294553574508271
objective bound: -4.2945983908977
x_opt: [3.8163916471489756e-17, 1.0, 1.0, 1.0, 1.0, 0.0, 0.0, 0.0, 0.3376604814938925, 1.0, 0.0, 0.4505148701048583, 1.0, 1.0, 1.0, 0.1768652231845313, 0.0, 0.0, 2.0569005812370346e-6, 0.6091725898475618]
GUROBI solution time: 0.7906579971313477




